(declare-const havoc Int)
(declare-const |x':27:32| Int)
(declare-const |K:30:31| Int)
(assert (and (< havoc 0)
               (or (not (<= (- |K:30:31|) 0))
                     (= (+ |x':27:32| (- |K:30:31|) (- havoc)) 0))
               (or (and (= |K:30:31| 0) (= (+ (- |x':27:32|) havoc) 0))
                     (and (<= (+ (- |K:30:31|) 1) 0) (<= (+ havoc -9) 0)
                            (<= (+ |x':27:32| -10) 0))) (<= (- |K:30:31|) 0)
               (<= (+ (- |x':27:32|) 10) 0) (not (= (+ |x':27:32| -10) 0))))
(check-sat)
